NAME : ../File/prFile/tspFile/tsp_file30.tsp.483.tour
COMMENT : Length = 483
COMMENT : Found by LKH-3 [Keld Helsgaun] Wed Jun 14 16:16:50 2023
TYPE : TOUR
DIMENSION : 30
TOUR_SECTION
1
13
22
19
6
17
7
14
26
18
20
3
4
12
25
15
10
9
30
28
8
23
27
11
2
29
16
24
5
21
-1
EOF
